decision_x1=[0,2];
decision_x2=[0,2];
decision_x3=[0,2];
decision_x4=[0,2];
decision_x5=[0,2];
decision_x6=[0,2];
decision_x7=[0,2];
decision_x8=[0,2];
decision_x9=[0,2];
decision_x10=[0,2];
random_y1=[0,2];
random_y2=[0,2];
constraint_x3_x2=[
0,1,0.56|
0,2,8|
1,0,0.28|
1,2,1.1|
2,0,9.7|
2,1,5.3|
];
constraint_x4_x1=[
0,1,9.5|
0,2,5.9|
1,0,5.2|
1,2,1.5|
2,0,1.2|
2,1,2.3|
];
constraint_x5_x1=[
0,1,3.8|
0,2,8.2|
1,0,0.091|
1,2,3.9|
2,0,0.014|
2,1,7.5|
];
constraint_x5_x2=[
0,1,0.69|
0,2,8.5|
1,0,8.2|
1,2,6.9|
2,0,5.4|
2,1,6.3|
];
constraint_x5_x4=[
0,1,3.6|
0,2,4.3|
1,0,2.3|
1,2,5.2|
2,0,2.7|
2,1,5.1|
];
constraint_x6_x2=[
0,1,4.7|
0,2,0.3|
1,0,7.1|
1,2,0.1|
2,0,7|
2,1,6.6|
];
constraint_x6_x4=[
0,1,7.1|
0,2,8|
1,0,0.27|
1,2,6.2|
2,0,6.5|
2,1,9.4|
];
constraint_x6_x5=[
0,1,0.38|
0,2,5.9|
1,0,3.1|
1,2,6.2|
2,0,0.59|
2,1,3.8|
];
constraint_x7_x3=[
0,1,3.3|
0,2,8.6|
1,0,7.8|
1,2,2.5|
2,0,9.2|
2,1,3.3|
];
constraint_x7_x4=[
0,1,7.8|
0,2,9.6|
1,0,3|
1,2,7|
2,0,1.6|
2,1,7.1|
];
constraint_x7_x6=[
0,1,4.5|
0,2,4.8|
1,0,8|
1,2,7.3|
2,0,8.1|
2,1,5.8|
];
constraint_x8_x3=[
0,1,7.3|
0,2,2.3|
1,0,2.3|
1,2,6.8|
2,0,5.3|
2,1,3.1|
];
constraint_x8_x4=[
0,1,8.5|
0,2,8.7|
1,0,9.5|
1,2,5.4|
2,0,6.8|
2,1,0.99|
];
constraint_x8_x6=[
0,1,5.4|
0,2,3.7|
1,0,5.4|
1,2,5.8|
2,0,1.8|
2,1,9.1|
];
constraint_x8_x7=[
0,1,0.69|
0,2,2|
1,0,2.2|
1,2,9.9|
2,0,4|
2,1,5.6|
];
constraint_x9_x2=[
0,1,5.5|
0,2,9.7|
1,0,4.9|
1,2,9.6|
2,0,6.3|
2,1,8.7|
];
constraint_x9_x3=[
0,1,8.6|
0,2,3.5|
1,0,8|
1,2,4.7|
2,0,5.9|
2,1,6.1|
];
constraint_x9_x5=[
0,1,7.1|
0,2,5.9|
1,0,8.6|
1,2,7.6|
2,0,3|
2,1,1.8|
];
constraint_x9_x7=[
0,1,7.2|
0,2,9.9|
1,0,4.7|
1,2,6.2|
2,0,6.4|
2,1,5.7|
];
constraint_x9_x8=[
0,1,2.1|
0,2,4.2|
1,0,3|
1,2,6.2|
2,0,5.6|
2,1,7.7|
];
constraint_x10_x2=[
0,1,1.6|
0,2,1.4|
1,0,6.6|
1,2,3.3|
2,0,4.9|
2,1,0.56|
];
constraint_x10_x7=[
0,1,1.6|
0,2,7.9|
1,0,4.8|
1,2,6.4|
2,0,1.7|
2,1,6.1|
];
constraint_x10_x8=[
0,1,4.7|
0,2,8.4|
1,0,1.8|
1,2,7.4|
2,0,1.7|
2,1,6.1|
];
constraint_x1_y1=[
0,0,4|
0,1,1.9|
0,2,0.36|
1,0,5.1|
1,1,8|
1,2,9.5|
2,0,4.2|
2,1,9.7|
2,2,0.41|
];
constraint_x2_y2=[
0,0,7.1|
0,1,4.6|
0,2,7.8|
1,0,9.8|
1,1,0.95|
1,2,5.4|
2,0,6.5|
2,1,7.6|
2,2,2.5|
];
initial_distribution_y1=[0.59,0.057,0.35];
initial_distribution_y2=[0.35,0.35,0.3];
transition_y1=[
0.31,0.34,0.35|
0.22,0.19,0.6|
0.5,0.18,0.32|
];
transition_y2=[
0.48,0.2,0.32|
0.092,0.18,0.73|
0.25,0.45,0.3|
];
